% Auto-generated by scripts/generate_dzn.py
% problem_type   = regex
% instance       = regex_35
% source_json    = instances_json/2_high_blowup/regex_35.json
% blowup         = 35.48888888888889
% representation = NFA

mode = 1;

var_count = 34;
Q = 45;
S = 3;
q0 = 1;
F = {43, 44, 45};
d_dfa = array2d(1..45, 1..3, [
  0, 0, 0,
  0, 0, 0,
  0, 0, 0,
  0, 0, 0,
  0, 0, 0,
  0, 0, 0,
  0, 0, 0,
  0, 0, 0,
  0, 0, 0,
  0, 0, 0,
  0, 0, 0,
  0, 0, 0,
  0, 0, 0,
  0, 0, 0,
  0, 0, 0,
  0, 0, 0,
  0, 0, 0,
  0, 0, 0,
  0, 0, 0,
  0, 0, 0,
  0, 0, 0,
  0, 0, 0,
  0, 0, 0,
  0, 0, 0,
  0, 0, 0,
  0, 0, 0,
  0, 0, 0,
  0, 0, 0,
  0, 0, 0,
  0, 0, 0,
  0, 0, 0,
  0, 0, 0,
  0, 0, 0,
  0, 0, 0,
  0, 0, 0,
  0, 0, 0,
  0, 0, 0,
  0, 0, 0,
  0, 0, 0,
  0, 0, 0,
  0, 0, 0,
  0, 0, 0,
  0, 0, 0,
  0, 0, 0,
  0, 0, 0
]);
d_nfa = array2d(1..45, 1..3, [
  {2, 5}, {3}, {4},
  {2, 5}, {3}, {4},
  {2, 5}, {3}, {4},
  {2, 5}, {3}, {4},
  {}, {6}, {},
  {7}, {8}, {9},
  {10}, {11}, {12},
  {10}, {11}, {12},
  {10}, {11}, {12},
  {13}, {14}, {15},
  {13}, {14}, {15},
  {13}, {14}, {15},
  {16}, {17}, {18},
  {16}, {17}, {18},
  {16}, {17}, {18},
  {19}, {20}, {21},
  {19}, {20}, {21},
  {19}, {20}, {21},
  {22}, {23}, {24},
  {22}, {23}, {24},
  {22}, {23}, {24},
  {25}, {26}, {27},
  {25}, {26}, {27},
  {25}, {26}, {27},
  {28}, {29}, {30},
  {28}, {29}, {30},
  {28}, {29}, {30},
  {31}, {32}, {33},
  {31}, {32}, {33},
  {31}, {32}, {33},
  {34}, {35}, {36},
  {34}, {35}, {36},
  {34}, {35}, {36},
  {37}, {38}, {39},
  {37}, {38}, {39},
  {37}, {38}, {39},
  {40}, {41}, {42},
  {40}, {41}, {42},
  {40}, {41}, {42},
  {43}, {44}, {45},
  {43}, {44}, {45},
  {43}, {44}, {45},
  {}, {}, {},
  {}, {}, {},
  {}, {}, {}
]);
